CMPL model generation - running

CMPL version: 1.11.0
Authors: Thomas Schleiff, Mike Steglich
Distributed under the GPLv3 

create model instance ...
write model instance ...
CMPL model generation - finished

Solver - running


Welcome to IBM(R) ILOG(R) CPLEX(R) Interactive Optimizer 12.7.1.0
  with Simplex, Mixed Integer & Barrier Optimizers
5725-A06 5725-A29 5724-Y48 5724-Y49 5724-Y54 5724-Y55 5655-Y21
Copyright IBM Corp. 1988, 2017.  All Rights Reserved.

Type 'help' for a list of available commands.
Type 'help' followed by a command name for more
information on commands.

CPLEX> Specified objective sense: MINIMIZE
Selected objective  name:  line[1]
Selected RHS        name:  RHS
Selected bound      name:  BOUND
Problem '/tmp/cmpl.T24466.mps' read.
Read time = 0.05 sec. (8.18 ticks)
CPLEX> CPXPARAM_Read_APIEncoding                        "UTF-8"
Tried aggregator 3 times.
MIP Presolve eliminated 19121 rows and 30480 columns.
MIP Presolve modified 340 coefficients.
Aggregator did 708 substitutions.
Reduced MIP has 2526 rows, 3405 columns, and 9923 nonzeros.
Reduced MIP has 3237 binaries, 0 generals, 0 SOSs, and 0 indicators.
Presolve time = 0.05 sec. (40.70 ticks)
Found incumbent of value 1477.110713 after 0.10 sec. (67.16 ticks)
Probing fixed 15 vars, tightened 0 bounds.
Probing time = 0.01 sec. (4.48 ticks)
Tried aggregator 1 time.
MIP Presolve eliminated 0 rows and 15 columns.
MIP Presolve modified 85 coefficients.
Reduced MIP has 2526 rows, 3390 columns, and 9893 nonzeros.
Reduced MIP has 3390 binaries, 0 generals, 0 SOSs, and 0 indicators.
Presolve time = 0.01 sec. (8.42 ticks)
Probing time = 0.01 sec. (2.71 ticks)
Clique table members: 6036.
MIP emphasis: balance optimality and feasibility.
MIP search method: dynamic search.
Parallel mode: none, using 1 thread.
Root relaxation solution time = 0.01 sec. (6.62 ticks)

        Nodes                                         Cuts/
   Node  Left     Objective  IInf  Best Integer    Best Bound    ItCnt     Gap

*     0+    0                         1477.1107      -20.1002           101.36%
      0     0      350.2634     3     1477.1107      350.2634      312   76.29%
*     0+    0                          352.2357      350.2634             0.56%
*     0+    0                          350.3491      350.2634             0.02%
*     0     0      integral     0      350.3094       Cuts: 8      315    0.00%
      0     0        cutoff            350.3094      350.3094      315    0.00%
Elapsed time = 0.18 sec. (108.84 ticks, tree = 0.01 MB, solutions = 4)

Clique cuts applied:  2
Cover cuts applied:  4
Gomory fractional cuts applied:  2

Root node processing (before b&c):
  Real time             =    0.18 sec. (110.55 ticks)
Sequential b&c:
  Real time             =    0.00 sec. (0.00 ticks)
                          ------------
Total (root+branch&cut) =    0.18 sec. (110.55 ticks)

Solution pool: 4 solutions saved.

MIP - Integer optimal solution:  Objective =  3.5030939800e+02
Solution time =    0.18 sec.  Iterations = 315  Nodes = 0
Deterministic time = 110.65 ticks  (619.36 ticks/sec)

CPLEX> Incumbent solution written to file '/tmp/cmpl.T24466.gsol'.
CPLEX> 
CMPL: Time used for model generation: 1 seconds
CMPL: Time used for solving the model: 1 seconds


Solution written to ASCII file: results/output_generated_conf_0.7/2016-03-07-4/fair-nonlinear.sol

Solver - finished
